StringID   Type       x          y          demand     ReadyTime  DueDate    ServiceTime 
D0         d          40.0       50.0       0.0        0.0        240.0      0.0        
S1         f          40.0       50.0       0.0        0.0        240.0      0.0
S2         f          57.0       82.0       0.0        0.0        240.0      0.0
S3         f          14.0       59.0       0.0        0.0        240.0      0.0
C1        c          8.0        40.0       20.0       56.0       226.0      8.0
C2        c          40.0       15.0       20.0       36.0       246.0      7.0
C3        c          30.0       60.0       8.0        15.0       250.0      6.0
C4        c          27.0       43.0       9.0        10.0      247.0      9.0
C5        c          65.0       85.0       20.0       57.0       214.0      10.0
C6        c          18.0       40.0       10.0       10.0       221.0      8.0
C7        c          37.0       35.0       15.0        0.0      250.0      6.0
C8        c          55.0       27.0       22.0       27.0       280.0      7.0
C9        c          37.0       16.0       25.0       96.0       256.0      6.0
C10        c          42.0       38.0       13.0       10.0       250.0      5.0
C11        c          50.0       41.0       8.0        0.0      230.0      10.0
C12        c          55.0       53.0       20.0       0.0       204.0      8.0
C13        c          43.0       29.0       8.0        20.0       220.0      12.0
C14        c          47.0       49.0       5.0        20.0      220.0      5.0
C15        c          60.0       37.0       25.0       40.0       280.0      7.0

Q Vehicle fuel tank capacity /77.75/
C Vehicle load capacity /1000.0/
r fuel consumption rate /1.0/
g inverse refueling rate /0.39/
v average Velocity /1.0/
